39 46
11 7
7 18
22 28
9 44
9 7
41 27
36 41
9 38
41 28
37 18
23 12
43 24
0 13
32 24
3 47
12 36
36 24
45 29
10 1
30 47
46 23
17 10
7 18
26 21
9 21
3 31
18 17
24 39
13 35
8 32
9 45
13 19
17 20
7 43
19 17
20 35
37 30
8 20
32 31
26 39
34 15
31 40
27 19
7 49
31 9
44 17
35 22
45 11
43 10
